Si
 5.43
 1.0 0.0 0.0
 0.0 1.0 0.0
 0.0 0.0 1.0
 Si
 2
 Direct
 0.00 0.00 0.00
 0.25 0.25 0.25
